c ---- [ banner ] ------------------------------------------------------------
c
c Kissat SAT Solver
c 
c Copyright (c) 2021-2024 Armin Biere University of Freiburg
c Copyright (c) 2019-2021 Armin Biere Johannes Kepler University Linz
c 
c Version 4.0.2 unknown
c gcc (GCC) 13.3.0 -W -Wall -O3 -march=native -funroll-loops -DNDEBUG
c Mon Feb 24 08:53:02 AM CET 2025 Linux main0 6.6.79 x86_64
c
c ---- [ parsing ] -----------------------------------------------------------
c
c opened and reading DIMACS file:
c
c   instances/003a77d2aa15a5f93aa2cfe79b986c9e-fclqcolor-20-15-15.shuffled-as.sat05-1270.cnf
c
c parsed 'p cnf 790 49835' header
c closing input after reading 719400 bytes (703 KB)
c finished parsing after 0.00 seconds
c
c ---- [ solving ] -----------------------------------------------------------
c
c seconds switched rate     size/glue tier1  binary       remaining
c        MB reductions conflicts size  tier2    irredundant
c         level restarts redundant glue  trail        variables
c
c *  0.00  6 0 0 0  0 0   0   0 0.0 0 0 0 0 0% 7050 42785 790 100%
c (  0.01  6 0 0 0  0 0   0   0 0.0 0 0 0 0 0% 7050 42785 790 100%
c .  0.01  6 0 0 0  0 0   0   0 0.0 0 0 0 0 0% 7050 42785 790 100%
c f  0.15  7 0 0 0  0 0   0   0 0.0 0 0 0 0 0% 2370 8585 1305 165%
c e  0.16  7 0 0 0  0 0   0   0 0.0 0 0 0 0 0% 2460 8585 1215 154%
c )  0.16  7 0 0 0  0 0   0   0 0.0 0 0 0 0 0% 2460 8585 1215 154%
c {  0.16  7 0 0 0  0 0   0   0 0.0 0 0 2 6 0% 2460 8585 1215 154%
c }  0.16  7 61 0 0  5 6 107  99 4.1 54 13 2 6 77% 2460 8585 1215 154%
c 1  0.16  7 61 0 0  5 6 107  99 4.1 54 13 2 6 77% 2460 8585 1215 154%
c
c ---- [ result ] ------------------------------------------------------------
c
s SATISFIABLE
v -1 -2 3 -4 -5 6 7 8 -9 10 11 12 -13 -14 -15 -16 17 18 19 -20 -21 -22 23 -24
v -25 26 27 28 29 30 31 32 -33 -34 35 36 -37 -38 -39 40 41 -42 43 44 45 -46 47
v 48 49 -50 -51 -52 53 54 55 -56 57 58 59 60 -61 62 -63 64 65 66 -67 68 69 70
v -71 72 73 -74 75 -76 77 -78 -79 -80 81 -82 -83 84 -85 -86 87 88 89 90 91 92
v 93 94 -95 -96 97 -98 99 -100 -101 102 103 -104 -105 -106 107 -108 109 110
v 111 -112 113 -114 115 116 -117 118 119 -120 121 122 123 124 125 -126 -127
v 128 -129 130 131 132 133 -134 -135 136 -137 138 -139 140 141 -142 -143 -144
v -145 146 147 148 149 -150 151 152 -153 -154 -155 -156 157 -158 159 -160 161
v 162 163 164 165 166 167 -168 169 170 171 172 -173 174 175 176 177 -178 179
v 180 -181 -182 -183 -184 -185 186 187 188 189 -190 -191 -192 -193 -194 195
v 196 197 198 -199 -200 -201 -202 203 204 -205 206 -207 -208 -209 -210 -211
v 212 213 214 215 -216 -217 218 -219 220 221 222 -223 224 -225 226 -227 228
v 229 230 231 232 233 234 -235 236 -237 -238 239 -240 241 -242 -243 -244 245
v -246 247 -248 249 250 -251 -252 253 -254 255 -256 -257 -258 259 -260 -261
v 262 263 264 265 266 267 -268 269 -270 -271 -272 -273 274 -275 276 -277 -278
v 279 280 -281 -282 -283 284 -285 286 287 -288 289 290 -291 292 293 294 295
v 296 297 -298 299 -300 301 302 303 -304 305 306 307 -308 309 310 311 -312 313
v 314 315 316 -317 318 319 -320 321 322 -323 -324 325 -326 -327 328 329 330
v 331 -332 333 -334 -335 336 337 338 339 340 341 342 343 344 345 -346 -347
v -348 -349 350 351 352 -353 354 355 -356 -357 -358 -359 360 -361 -362 -363
v -364 365 366 367 -368 369 370 371 -372 -373 374 375 376 377 -378 379 -380
v 381 -382 383 -384 385 386 387 388 389 -390 391 392 -393 394 395 -396 397 398
v 399 400 401 -402 -403 404 405 406 407 -408 -409 -410 -411 -412 -413 -414 415
v 416 417 -418 419 -420 -421 422 423 -424 425 -426 427 428 -429 430 -431 432
v 433 434 -435 -436 437 438 439 440 441 442 443 444 -445 -446 447 -448 449
v -450 451 452 453 -454 455 456 457 458 -459 -460 -461 462 -463 464 465 466
v 467 468 -469 -470 471 472 -473 474 -475 476 -477 -478 -479 480 481 -482 483
v -484 -485 -486 487 -488 489 490 -491 492 -493 -494 -495 -496 -497 498 -499
v 500 -501 -502 -503 504 505 506 507 -508 -509 510 -511 -512 513 514 515 -516
v -517 -518 519 520 -521 -522 -523 524 525 526 527 -528 -529 -530 -531 532
v -533 534 535 536 537 -538 539 540 541 -542 543 544 -545 546 -547 548 -549
v -550 -551 552 -553 -554 555 -556 557 -558 -559 560 561 -562 -563 564 565
v -566 567 568 -569 570 -571 -572 573 -574 -575 576 577 578 -579 -580 -581
v -582 -583 -584 585 586 -587 -588 -589 -590 591 592 593 594 595 -596 597 598
v 599 600 -601 602 -603 -604 605 -606 607 -608 -609 610 -611 -612 613 614 615
v 616 617 618 -619 620 -621 -622 -623 -624 -625 626 -627 628 -629 630 631 632
v 633 634 635 -636 637 638 -639 640 641 642 -643 -644 -645 646 -647 648 649
v -650 651 -652 653 -654 655 -656 657 658 659 -660 -661 -662 663 -664 -665 666
v -667 -668 669 670 671 -672 -673 -674 675 -676 677 -678 679 -680 -681 -682
v -683 684 685 -686 687 -688 689 690 691 692 693 694 -695 696 697 698 -699
v -700 701 -702 703 -704 705 -706 -707 -708 709 710 -711 712 -713 714 715 716
v 717 718 719 720 -721 -722 -723 -724 -725 -726 727 728 729 -730 -731 -732 733
v -734 -735 736 -737 738 -739 740 741 -742 743 -744 745 -746 -747 -748 -749
v -750 751 752 -753 754 -755 -756 -757 758 -759 -760 -761 762 -763 -764 -765
v -766 -767 -768 769 -770 771 -772 773 774 -775 -776 -777 -778 779 780 781 782
v -783 784 -785 786 787 788 789 790 0
c
c ---- [ profiling ] ---------------------------------------------------------
c
c           0.16   96.12 %  preprocess
c           0.15   91.42 %  probe
c           0.13   79.04 %  factor
c           0.01    8.69 %  sweep
c           0.01    4.66 %  fastel
c           0.00    3.05 %  congruence
c           0.00    2.63 %  parse
c           0.00    0.62 %  search
c           0.00    0.61 %  focused
c           0.00    0.54 %  substitute
c           0.00    0.51 %  lucky
c           0.00    0.08 %  backbone
c           0.00    0.00 %  simplify
c =============================================
c           0.16  100.00 %  total
c
c ---- [ statistics ] --------------------------------------------------------
c
c conflicts:                              107              651.15 per second
c decisions:                              756                7.07 per conflict
c eliminated:                              90               11 %  variables
c factored:                               515               65 %  variables
c fast_eliminated:                         90              100 %  eliminated
c propagations:                         28545           173711    per second
c restarts:                                 5               21    interval
c switched:                                 0                0    interval
c
c ---- [ glue usage ] --------------------------------------------------------
c
c focused glue 11 used 31 clauses 15.42% accumulated 63.68% tier1
c focused glue 12 used 23 clauses 11.44% accumulated 75.12%
c focused glue 13 used 19 clauses  9.45% accumulated 84.58%
c focused glue 14 used 14 clauses  6.97% accumulated 91.54% tier2
c
c ---- [ resources ] ---------------------------------------------------------
c
c maximum-resident-set-size:          7581696 bytes          7 MB
c process-time:                                              0.16 seconds
c
c ---- [ shutting down ] -----------------------------------------------------
c
c exit 10
